param n := 60;
param c := 3000
param : V : p w :=
   0	  13	 403
   1	  77	 287
   2	  41	 310
   3	  32	 427
   4	  16	 281
   5	  40	 292
   6	  59	 451
   7	  78	 265
   8	   4	 284
   9	  55	 450
  10	  37	 250
  11	  38	 300
  12	  11	 400
  13	  28	 278
  14	  78	 322
  15	  46	 374
  16	  48	 261
  17	  85	 365
  18	  28	 380
  19	  14	 276
  20	  35	 344
  21	  12	 464
  22	  43	 252
  23	  38	 284
  24	  34	 394
  25	  65	 269
  26	   4	 337
  27	 100	 375
  28	   5	 297
  29	  91	 328
  30	  25	 498
  31	  41	 250
  32	   6	 252
  33	  35	 374
  34	  83	 304
  35	   1	 322
  36	  21	 355
  37	  86	 276
  38	   8	 369
  39	  94	 485
  40	  76	 253
  41	  32	 262
  42	  62	 357
  43	  46	 275
  44	  78	 368
  45	  91	 424
  46	  24	 259
  47	  41	 317
  48	  59	 471
  49	  13	 250
  50	  55	 279
  51	  98	 388
  52	  21	 273
  53	 100	 339
  54	  86	 449
  55	  11	 275
  56	  67	 276
  57	  70	 405
  58	  48	 274
  59	  51	 321
;

set E :=
   0	   4
   0	   6
   0	   9
   0	  12
   0	  19
   0	  20
   0	  21
   0	  29
   0	  30
   0	  31
   0	  35
   0	  37
   0	  38
   0	  41
   0	  44
   0	  46
   0	  50
   0	  52
   0	  57
   1	   3
   1	   5
   1	   6
   1	   8
   1	  17
   1	  22
   1	  24
   1	  26
   1	  34
   1	  35
   1	  38
   1	  40
   1	  42
   1	  43
   1	  51
   2	   4
   2	   5
   2	   7
   2	  12
   2	  14
   2	  15
   2	  17
   2	  18
   2	  20
   2	  25
   2	  27
   2	  28
   2	  31
   2	  38
   2	  40
   2	  42
   2	  44
   2	  47
   2	  50
   2	  51
   2	  52
   2	  54
   2	  59
   3	   6
   3	   7
   3	   8
   3	  14
   3	  17
   3	  20
   3	  22
   3	  23
   3	  27
   3	  30
   3	  33
   3	  34
   3	  36
   3	  44
   3	  46
   3	  47
   4	   5
   4	  20
   4	  21
   4	  23
   4	  25
   4	  30
   4	  34
   4	  36
   4	  44
   4	  46
   4	  50
   4	  53
   4	  55
   4	  58
   5	   8
   5	   9
   5	  14
   5	  15
   5	  26
   5	  33
   5	  35
   5	  37
   5	  42
   5	  44
   5	  45
   5	  48
   5	  50
   5	  56
   5	  59
   6	   9
   6	  12
   6	  16
   6	  20
   6	  22
   6	  29
   6	  31
   6	  32
   6	  41
   6	  42
   6	  43
   6	  44
   6	  54
   6	  55
   6	  56
   6	  57
   6	  59
   7	  22
   7	  26
   7	  28
   7	  34
   7	  35
   7	  39
   7	  50
   7	  58
   7	  59
   8	  12
   8	  15
   8	  17
   8	  21
   8	  28
   8	  31
   8	  34
   8	  36
   8	  41
   8	  45
   8	  46
   8	  49
   8	  50
   8	  51
   8	  53
   8	  56
   8	  58
   9	  12
   9	  16
   9	  19
   9	  20
   9	  24
   9	  26
   9	  28
   9	  42
   9	  45
   9	  49
   9	  50
   9	  59
  10	  12
  10	  13
  10	  14
  10	  15
  10	  16
  10	  19
  10	  21
  10	  24
  10	  25
  10	  27
  10	  29
  10	  31
  10	  40
  10	  48
  10	  49
  10	  54
  10	  58
  11	  12
  11	  13
  11	  14
  11	  17
  11	  20
  11	  24
  11	  25
  11	  30
  11	  33
  11	  38
  11	  39
  11	  40
  11	  41
  11	  43
  11	  44
  11	  46
  11	  47
  11	  48
  11	  55
  12	  14
  12	  17
  12	  21
  12	  22
  12	  23
  12	  31
  12	  32
  12	  35
  12	  37
  12	  42
  12	  43
  12	  49
  12	  50
  12	  56
  13	  16
  13	  19
  13	  20
  13	  26
  13	  32
  13	  33
  13	  37
  13	  39
  13	  40
  13	  42
  13	  45
  13	  50
  13	  53
  13	  55
  13	  56
  13	  57
  13	  58
  14	  17
  14	  19
  14	  21
  14	  26
  14	  33
  14	  34
  14	  36
  14	  37
  14	  41
  14	  42
  14	  45
  14	  46
  14	  51
  14	  52
  14	  56
  14	  57
  15	  16
  15	  24
  15	  25
  15	  35
  15	  40
  15	  41
  15	  42
  15	  43
  15	  45
  16	  22
  16	  27
  16	  28
  16	  31
  16	  33
  16	  35
  16	  36
  16	  44
  16	  45
  16	  46
  16	  47
  16	  49
  16	  54
  16	  57
  17	  19
  17	  20
  17	  21
  17	  22
  17	  24
  17	  29
  17	  31
  17	  33
  17	  34
  17	  38
  17	  43
  17	  51
  17	  52
  17	  59
  18	  19
  18	  32
  18	  34
  18	  35
  18	  43
  18	  47
  18	  49
  18	  53
  18	  54
  18	  55
  18	  57
  19	  26
  19	  33
  19	  39
  19	  41
  19	  44
  19	  49
  19	  51
  20	  22
  20	  25
  20	  30
  20	  31
  20	  33
  20	  37
  20	  38
  20	  41
  20	  44
  20	  46
  20	  49
  20	  51
  20	  53
  20	  56
  20	  58
  21	  22
  21	  27
  21	  35
  21	  40
  21	  46
  21	  47
  21	  55
  22	  24
  22	  25
  22	  26
  22	  28
  22	  40
  22	  41
  22	  43
  22	  45
  22	  57
  23	  24
  23	  27
  23	  32
  23	  34
  23	  35
  23	  36
  23	  42
  23	  44
  23	  45
  23	  46
  23	  47
  23	  48
  24	  26
  24	  27
  24	  31
  24	  33
  24	  36
  24	  37
  24	  38
  24	  39
  24	  40
  24	  41
  24	  43
  24	  46
  24	  47
  24	  50
  24	  57
  25	  30
  25	  39
  25	  40
  25	  42
  25	  43
  25	  51
  25	  54
  25	  56
  26	  27
  26	  29
  26	  30
  26	  36
  26	  38
  26	  41
  26	  46
  26	  49
  26	  52
  26	  53
  26	  56
  26	  57
  26	  58
  26	  59
  27	  28
  27	  30
  27	  33
  27	  35
  27	  39
  27	  41
  27	  43
  27	  46
  27	  47
  27	  49
  27	  55
  27	  58
  28	  33
  28	  41
  28	  48
  28	  50
  28	  54
  28	  55
  28	  57
  28	  58
  28	  59
  29	  32
  29	  33
  29	  38
  29	  42
  29	  48
  29	  49
  29	  50
  29	  51
  29	  57
  29	  59
  30	  31
  30	  32
  30	  35
  30	  36
  30	  43
  30	  46
  30	  48
  30	  50
  30	  53
  30	  54
  30	  58
  31	  33
  31	  39
  31	  44
  31	  47
  31	  56
  31	  57
  31	  59
  32	  38
  32	  39
  32	  41
  32	  43
  32	  45
  32	  47
  32	  48
  32	  49
  32	  54
  32	  56
  33	  35
  33	  40
  33	  43
  33	  49
  33	  51
  33	  53
  33	  55
  33	  57
  34	  40
  34	  41
  34	  45
  34	  47
  34	  52
  34	  53
  34	  54
  35	  36
  35	  44
  35	  46
  35	  47
  35	  48
  35	  52
  35	  53
  35	  55
  36	  39
  36	  46
  36	  53
  36	  56
  36	  58
  37	  38
  37	  40
  37	  43
  37	  44
  37	  46
  37	  49
  37	  50
  38	  42
  38	  51
  38	  52
  38	  53
  38	  54
  38	  55
  38	  58
  39	  48
  39	  50
  39	  54
  39	  55
  39	  56
  39	  59
  40	  47
  40	  48
  40	  50
  40	  51
  40	  52
  40	  57
  41	  42
  41	  45
  41	  47
  41	  48
  41	  56
  41	  57
  42	  46
  42	  47
  42	  51
  42	  54
  42	  55
  42	  56
  43	  46
  43	  51
  43	  53
  43	  54
  43	  57
  44	  47
  44	  51
  45	  52
  45	  53
  45	  54
  45	  55
  45	  57
  46	  55
  47	  49
  47	  50
  47	  51
  47	  54
  48	  51
  48	  55
  48	  57
  49	  50
  49	  53
  49	  54
  49	  55
  49	  58
  50	  52
  50	  53
  50	  54
  50	  55
  50	  57
  50	  59
  51	  58
  52	  56
  52	  58
  53	  58
  54	  55
  54	  57
  55	  56
  55	  57
  58	  59
;
